benchmarks/Factorization/qdimacs/factorization10.qdimacs
c Qdimacs file from skolem function generator
p cnf 151 485
a 141 142 143 144 145 146 147 148 149 150 0
e 131 132 133 134 135 136 137 138 139 140 1 2 3 4 5 6 7 8 9 10 11 12 13 14 15 16 17 18 19 20 21 22 23 24 25 26 27 28 29 30 31 32 33 34 35 36 37 38 39 40 41 42 43 44 45 46 47 48 49 50 51 52 53 54 55 56 57 58 59 60 61 62 63 64 65 66 67 68 69 70 71 72 73 74 75 76 77 78 79 80 81 82 83 84 85 86 87 88 89 90 91 92 93 94 95 96 97 98 99 100 101 102 103 104 105 106 107 108 109 110 111 112 113 114 115 116 117 118 119 120 121 122 123 124 125 126 127 128 129 130 151 0
4 5 95 99 -101 0
-4 101 0
-4 -99 0
-4 -5 0
-4 -95 0
5 142 -6 0
5 -142 6 0
-5 -142 -6 0
-5 142 6 0
6 -7 -90 0
6 7 90 0
-6 7 -90 0
-6 -7 90 0
7 8 73 0
-7 -8 0
-7 -73 0
8 -134 -140 -9 0
-8 134 0
-8 140 0
-8 9 0
9 -10 -68 0
9 10 68 0
-9 10 -68 0
-9 -10 68 0
10 11 51 0
-10 -11 0
-10 -51 0
11 -134 -139 -12 0
-11 134 0
-11 139 0
-11 12 0
12 -13 -49 0
12 13 49 0
-12 13 -49 0
-12 -13 49 0
13 14 30 0
-13 -14 0
-13 -30 0
14 -134 -138 -15 0
-14 134 0
-14 138 0
-14 15 0
15 16 -17 0
15 136 -16 17 0
15 134 -16 17 0
-15 16 17 0
-15 -16 -17 0
-15 -134 -136 17 0
16 -135 -137 0
-16 135 0
-16 137 0
17 18 27 0
-17 -18 0
-17 -27 0
18 19 20 0
-18 -19 0
-18 -20 0
19 -133 -134 -136 -137 0
-19 137 0
-19 133 0
-19 136 0
-19 134 0
20 21 -24 0
-20 -21 0
-20 24 0
21 22 23 0
-21 -22 0
-21 -23 0
22 -131 -132 -136 -137 0
-22 137 0
-22 131 0
-22 136 0
-22 132 0
23 -132 -133 -136 -137 0
-23 137 0
-23 132 0
-23 136 0
-23 133 0
24 25 -26 0
24 -25 26 0
-24 -25 -26 0
-24 25 26 0
25 -134 -136 0
-25 134 0
-25 136 0
26 -133 -137 0
-26 133 0
-26 137 0
27 -28 -29 0
27 28 29 0
-27 28 -29 0
-27 -28 29 0
28 -134 -137 0
-28 134 0
-28 137 0
29 -135 -136 0
-29 135 0
-29 136 0
30 31 -47 0
-30 -31 0
-30 47 0
31 32 34 0
-31 -32 0
-31 -34 0
32 -133 -138 -33 0
-32 133 0
-32 138 0
-32 33 0
33 18 -27 0
33 -18 27 0
-33 -18 -27 0
-33 18 27 0
34 35 -45 0
-34 -35 0
-34 45 0
35 36 38 0
-35 -36 0
-35 -38 0
36 -132 -138 -37 0
-36 132 0
-36 138 0
-36 37 0
37 -21 -24 0
37 21 24 0
-37 21 -24 0
-37 -21 24 0
38 -39 -43 0
-38 39 0
-38 43 0
39 -131 -138 -40 0
-39 131 0
-39 138 0
-39 40 0
40 22 -41 42 0
40 -22 -41 -42 0
40 22 41 -42 0
-40 -22 42 0
-40 -22 41 0
-40 41 42 0
-40 22 -41 -42 0
41 -133 -136 0
-41 133 0
-41 136 0
42 -132 -137 0
-42 132 0
-42 137 0
43 37 -44 0
43 -37 44 0
-43 -37 -44 0
-43 37 44 0
44 -132 -138 0
-44 132 0
-44 138 0
45 33 -46 0
45 -33 46 0
-45 -33 -46 0
-45 33 46 0
46 -133 -138 0
-46 133 0
-46 138 0
47 48 -15 0
47 -48 15 0
-47 -48 -15 0
-47 48 15 0
48 -134 -138 0
-48 134 0
-48 138 0
49 138 -50 0
49 -135 -138 50 0
-49 135 -138 0
-49 138 50 0
-49 -138 -50 0
50 -135 -137 -17 0
50 -135 -137 -25 0
-50 135 0
-50 137 0
-50 25 17 0
51 52 -66 0
-51 -52 0
-51 66 0
52 53 55 0
-52 -53 0
-52 -55 0
53 -133 -139 -54 0
-53 133 0
-53 139 0
-53 54 0
54 -31 -47 0
54 31 47 0
-54 31 -47 0
-54 -31 47 0
55 56 -64 0
-55 -56 0
-55 64 0
56 57 59 0
-56 -57 0
-56 -59 0
57 -132 -139 -58 0
-57 132 0
-57 139 0
-57 58 0
58 -35 -45 0
58 35 45 0
-58 35 -45 0
-58 -35 45 0
59 -60 -62 0
-59 60 0
-59 62 0
60 -131 -139 -61 0
-60 131 0
-60 139 0
-60 61 0
61 39 -43 0
61 -39 43 0
-61 -39 -43 0
-61 39 43 0
62 58 -63 0
62 -58 63 0
-62 -58 -63 0
-62 58 63 0
63 -132 -139 0
-63 132 0
-63 139 0
64 65 -54 0
64 -65 54 0
-64 -65 -54 0
-64 65 54 0
65 -133 -139 0
-65 133 0
-65 139 0
66 67 -12 0
66 -67 12 0
-66 -67 -12 0
-66 67 12 0
67 -134 -139 0
-67 134 0
-67 139 0
68 -69 -70 0
68 69 70 0
-68 69 -70 0
-68 -69 70 0
69 -135 -139 0
-69 135 0
-69 139 0
70 71 72 0
-70 -71 0
-70 -72 0
71 -138 -50 0
-71 138 0
-71 50 0
72 13 -49 0
-72 -13 0
-72 49 0
73 74 -88 0
-73 -74 0
-73 88 0
74 75 77 0
-74 -75 0
-74 -77 0
75 -133 -140 -76 0
-75 133 0
-75 140 0
-75 76 0
76 -52 -66 0
76 52 66 0
-76 52 -66 0
-76 -52 66 0
77 78 -86 0
-77 -78 0
-77 86 0
78 79 81 0
-78 -79 0
-78 -81 0
79 -132 -140 -80 0
-79 132 0
-79 140 0
-79 80 0
80 -56 -64 0
80 56 64 0
-80 56 -64 0
-80 -56 64 0
81 -82 -84 0
-81 82 0
-81 84 0
82 -131 -140 -83 0
-82 131 0
-82 140 0
-82 83 0
83 60 -62 0
83 -60 62 0
-83 -60 -62 0
-83 60 62 0
84 85 -80 0
84 -85 80 0
-84 -85 -80 0
-84 85 80 0
85 -132 -140 0
-85 132 0
-85 140 0
86 87 -76 0
86 -87 76 0
-86 -87 -76 0
-86 87 76 0
87 -133 -140 0
-87 133 0
-87 140 0
88 89 -9 0
88 -89 9 0
-88 -89 -9 0
-88 89 9 0
89 -134 -140 0
-89 134 0
-89 140 0
90 -91 -92 0
90 91 92 0
-90 91 -92 0
-90 -91 92 0
91 -135 -140 0
-91 135 0
-91 140 0
92 93 94 0
-92 -93 0
-92 -94 0
93 -135 -139 70 0
-93 135 0
-93 139 0
-93 -70 0
94 10 -68 0
-94 -10 0
-94 68 0
95 -141 -96 0
95 141 96 0
-95 141 -96 0
-95 -141 96 0
96 97 98 0
-96 -97 0
-96 -98 0
97 -135 -140 92 0
-97 135 0
-97 140 0
-97 -92 0
98 7 -90 0
-98 -7 0
-98 90 0
99 143 -100 0
99 -143 100 0
-99 -143 -100 0
-99 143 100 0
100 -74 -88 0
100 74 88 0
-100 74 -88 0
-100 -74 88 0
101 102 104 106 -109 0
-101 109 0
-101 -106 0
-101 -102 0
-101 -104 0
102 144 -103 0
102 -144 103 0
-102 -144 -103 0
-102 144 103 0
103 -78 -86 0
103 78 86 0
-103 78 -86 0
-103 -78 86 0
104 145 -105 0
104 -145 105 0
-104 -145 -105 0
-104 145 105 0
105 82 -84 0
105 -82 84 0
-105 -82 -84 0
-105 82 84 0
106 -146 107 0
-106 146 0
-106 -107 0
107 83 -108 0
107 -83 108 0
-107 -83 -108 0
-107 83 108 0
108 -131 -140 0
-108 131 0
-108 140 0
109 147 110 111 -113 0
109 -147 110 -111 -113 0
-109 113 0
-109 147 -111 0
-109 -110 0
-109 -147 111 0
110 146 -107 0
-110 -146 0
-110 107 0
111 61 -112 0
111 -61 112 0
-111 -61 -112 0
-111 61 112 0
112 -131 -139 0
-112 131 0
-112 139 0
113 148 114 116 -120 0
113 -148 -114 116 -120 0
-113 -116 0
-113 148 -114 0
-113 120 0
-113 -148 114 0
114 115 -40 0
114 -115 40 0
-114 -115 -40 0
-114 115 40 0
115 -131 -138 0
-115 131 0
-115 138 0
116 149 -117 0
116 -149 117 0
-116 -149 -117 0
-116 149 117 0
117 118 -119 0
117 -118 119 0
-117 -118 -119 0
-117 118 119 0
118 -132 -136 0
-118 132 0
-118 136 0
119 -131 -137 0
-119 131 0
-119 137 0
120 121 123 124 0
-120 -121 0
-120 -124 0
-120 -123 0
121 -136 -122 0
121 -131 -136 150 0
-121 136 0
-121 -150 122 0
-121 131 122 0
122 137 138 139 140 0
-122 -140 0
-122 -139 0
-122 -137 0
-122 -138 0
123 136 -150 0
123 131 -150 0
-123 150 0
-123 -131 -136 0
124 -131 132 135 -125 0
-124 125 0
-124 -135 0
-124 131 0
-124 -132 0
125 133 134 0
-125 -133 0
-125 -134 0
126 121 123 124 -127 0
-126 127 0
-126 -124 0
-126 -121 0
-126 -123 0
127 148 114 116 -128 0
127 -148 -114 116 -128 0
-127 -116 0
-127 148 -114 0
-127 128 0
-127 -148 114 0
128 -147 -111 -129 0
128 147 111 -129 0
-128 129 0
-128 -147 111 0
-128 147 -111 0
129 146 104 107 -130 0
129 -146 104 -107 -130 0
-129 130 0
-129 146 -107 0
-129 -104 0
-129 -146 107 0
130 5 95 99 102 0
-130 -102 0
-130 -99 0
-130 -5 0
-130 -95 0
151 0
2 -4 0
-2 4 0
3 -126 0
-3 126 0
3 0

